Traveling Salesman Problem/TSP_generados/Aleatorio1620390934_9.tsp
NAME: Aleatorio1620390934_9.tsp
COMMENT: Randomly generated scenario
TYPE: TSP
DIMENSION: 9
EDGE_WEIGHT_TYPE: ATT
NODE_COORD_SECTION
1 33.13 39.42
2 22.43 28.28
3 12.59 38.18
4 39.83 22.24
5 40.14 7.12
6 44.74 35.59
7 10.48 41.04
8 2.54 30.43
9 43.22 37.91
