Traveling Salesman Problem/TSP_generados/Aleatorio1620390934_9.opt.tour
NAME: Aleatorio1620390934_9.opt.tour
COMMENT: Optimal solution for Aleatorio1620390934_9 (127.30609394353974)
TYPE: TOUR
DIMENSION: 9
TOUR_SECTION
1 3 7 8 2 5 4 6 9
-1
EOF
